NAME: random-78-10323
TYPE: TSP
COMMENT: size=78 seed=10323
DIMENSION: 158
EDGE_WEIGHT_TYPE: EUC_2D
NODE_COORD_SECTION
+0 661 448
-0 661 448
+1 537 636
-1 917 65
+2 365 751
-2 294 728
+3 950 234
-3 304 673
+4 205 354
-4 141 246
+5 946 4
-5 247 923
+6 982 326
-6 974 544
+7 350 219
-7 472 202
+8 653 858
-8 724 423
+9 307 351
-9 207 346
+10 491 182
-10 319 456
+11 580 385
-11 204 989
+12 357 576
-12 259 62
+13 946 373
-13 688 724
+14 818 206
-14 95 294
+15 520 542
-15 464 181
+16 28 466
-16 262 192
+17 43 992
-17 558 508
+18 685 48
-18 599 204
+19 38 629
-19 208 437
+20 530 144
-20 706 241
+21 577 779
-21 715 756
+22 574 970
-22 395 915
+23 34 80
-23 902 567
+24 577 9
-24 814 176
+25 561 721
-25 625 964
+26 109 687
-26 70 604
+27 463 177
-27 993 185
+28 207 360
-28 955 530
+29 963 65
-29 745 214
+30 447 313
-30 452 12
+31 366 95
-31 892 218
+32 989 507
-32 334 938
+33 989 845
-33 387 889
+34 259 242
-34 266 7
+35 693 699
-35 947 148
+36 918 477
-36 512 660
+37 711 764
-37 826 767
+38 938 923
-38 777 764
+39 71 346
-39 516 68
+40 703 492
-40 953 304
+41 950 733
-41 966 110
+42 558 437
-42 960 388
+43 952 296
-43 361 733
+44 686 439
-44 881 981
+45 979 248
-45 406 898
+46 59 721
-46 503 701
+47 675 418
-47 504 30
+48 946 512
-48 981 645
+49 26 996
-49 172 185
+50 348 829
-50 284 664
+51 327 303
-51 184 89
+52 738 953
-52 28 625
+53 801 979
-53 295 764
+54 529 200
-54 371 416
+55 743 271
-55 431 864
+56 233 388
-56 178 33
+57 768 309
-57 770 891
+58 457 740
-58 609 36
+59 533 57
-59 766 523
+60 587 232
-60 743 869
+61 506 745
-61 837 389
+62 751 699
-62 730 251
+63 983 355
-63 55 363
+64 454 938
-64 167 324
+65 591 887
-65 435 719
+66 825 176
-66 513 992
+67 159 624
-67 28 268
+68 72 675
-68 357 827
+69 11 515
-69 83 386
+70 954 24
-70 882 28
+71 999 149
-71 628 825
+72 106 2
-72 10 351
+73 513 871
-73 464 358
+74 871 862
-74 467 860
+75 130 868
-75 73 132
+76 646 187
-76 589 425
+77 240 890
-77 881 102
+78 365 405
-78 753 286
PRECEDENCE_SECTION
+0 -0
+1 -1
+2 -2
+3 -3
+4 -4
+5 -5
+6 -6
+7 -7
+8 -8
+9 -9
+10 -10
+11 -11
+12 -12
+13 -13
+14 -14
+15 -15
+16 -16
+17 -17
+18 -18
+19 -19
+20 -20
+21 -21
+22 -22
+23 -23
+24 -24
+25 -25
+26 -26
+27 -27
+28 -28
+29 -29
+30 -30
+31 -31
+32 -32
+33 -33
+34 -34
+35 -35
+36 -36
+37 -37
+38 -38
+39 -39
+40 -40
+41 -41
+42 -42
+43 -43
+44 -44
+45 -45
+46 -46
+47 -47
+48 -48
+49 -49
+50 -50
+51 -51
+52 -52
+53 -53
+54 -54
+55 -55
+56 -56
+57 -57
+58 -58
+59 -59
+60 -60
+61 -61
+62 -62
+63 -63
+64 -64
+65 -65
+66 -66
+67 -67
+68 -68
+69 -69
+70 -70
+71 -71
+72 -72
+73 -73
+74 -74
+75 -75
+76 -76
+77 -77
+78 -78
EOF
